p cnf 26 16
9 11 -18 15 -16 17 0
17 3 -12 -7 -21 -20 -4 0
1 -2 23 -18 15 0
-16 20 -10 9 -23 0
-12 -10 9 11 25 0
19 17 3 -25 0
-16 2 26 -1 0
-14 -5 6 0
-14 27 13 0
-6 5 21 -27 0
8 -7 28 0
-28 -27 -10 9 15 0
-16 17 -28 -12 -18 0
-13 14 0
4 0
-21 -4 -19 -26 0
